[2026-03-24T13:36:42.263Z] Pipeline "set_vm-3-t1_vm-3-t1_s002_g002" → 2026_03_24_13_36_42_set_vm-3-t1_vm-3-t1_s002_g002_max.sol
Set parameter Username
Set parameter LicenseID to value 2796068
Set parameter LogFile to value "gurobi.log"
Using license file /opt/gurobi/gurobi.lic
Academic license - for non-commercial use only - expires 2027-03-23

Gurobi Optimizer version 13.0.1 build v13.0.1rc0 (linux64 - "Ubuntu 24.04.4 LTS")
Copyright (c) 2026, Gurobi Optimization, LLC

Warning: Duplicate section found (read 'binary') - Is a variable name equal to an LP file format keyword?
Warning: Duplicate section found (read 'binary') - Is a variable name equal to an LP file format keyword?
Warning: Duplicate section found (read 'binary') - Is a variable name equal to an LP file format keyword?
Warning: Duplicate section found (read 'binary') - Is a variable name equal to an LP file format keyword?
Warning: Duplicate section found (read 'binary') - Is a variable name equal to an LP file format keyword?
Warning: Duplicate section found (read 'binary') - Is a variable name equal to an LP file format keyword?
Warning: Duplicate section found (read 'binary') - Is a variable name equal to an LP file format keyword?
Warning: Duplicate section found (read 'binary') - Is a variable name equal to an LP file format keyword?
Warning: Duplicate section found (read 'binary') - Is a variable name equal to an LP file format keyword?
Warning: Duplicate section found (read 'binary') - Is a variable name equal to an LP file format keyword?
Warning: Further warnings of this type will be omitted.
Read LP format model from file /root/bgw/data/uploads/2026_03_24_13_36_42_set_vm-3-t1_vm-3-t1_s002_g002_max.lp
Reading time = 0.00 seconds
: 853 rows, 149 columns, 2376 nonzeros

Using Gurobi shared library /opt/gurobi1301/linux64/lib/libgurobi.so.13.0.1

CPU model: AMD EPYC-Genoa Processor, instruction set [SSE2|AVX|AVX2|AVX512]
Thread count: 16 physical cores, 16 logical processors, using up to 16 threads

Optimize a model with 853 rows, 149 columns and 2376 nonzeros (Max)
Model fingerprint: 0x565133be
Model has 33 linear objective coefficients
Variable types: 45 continuous, 104 integer (104 binary)
Coefficient statistics:
  Matrix range     [1e+00, 1e+01]
  Objective range  [1e+00, 1e+00]
  Bounds range     [1e+00, 1e+00]
  RHS range        [1e+00, 1e+01]

Found heuristic solution: objective 33.0000000
Presolve removed 362 rows and 53 columns
Presolve time: 0.00s
Presolved: 491 rows, 96 columns, 1554 nonzeros
Variable types: 0 continuous, 96 integer (87 binary)
Found heuristic solution: objective 47.0000000

Root relaxation: objective 1.760000e+02, 114 iterations, 0.00 seconds (0.00 work units)

    Nodes    |    Current Node    |     Objective Bounds      |     Work
 Expl Unexpl |  Obj  Depth IntInf | Incumbent    BestBd   Gap | It/Node Time

     0     0  176.00000    0   42   47.00000  176.00000   274%     -    0s
H    0     0                      55.0000000  176.00000   220%     -    0s
H    0     0                      58.0000000  176.00000   203%     -    0s
H    0     0                      62.0000000  176.00000   184%     -    0s
H    0     0                      73.0000000  176.00000   141%     -    0s
H    0     0                      76.0000000  176.00000   132%     -    0s
H    0     0                      77.0000000  176.00000   129%     -    0s
     0     0  176.00000    0   42   77.00000  176.00000   129%     -    0s
H    0     0                      86.0000000  176.00000   105%     -    0s
     0     0  176.00000    0   42   86.00000  176.00000   105%     -    0s
     0     0  176.00000    0   41   86.00000  176.00000   105%     -    0s
H    0     0                      87.0000000  176.00000   102%     -    0s
     0     0  176.00000    0   42   87.00000  176.00000   102%     -    0s
     0     0  176.00000    0   40   87.00000  176.00000   102%     -    0s
     0     0  176.00000    0   41   87.00000  176.00000   102%     -    0s
     0     0  176.00000    0   41   87.00000  176.00000   102%     -    0s
     0     0  176.00000    0   42   87.00000  176.00000   102%     -    0s
     0     0  176.00000    0   42   87.00000  176.00000   102%     -    0s
     0     0  176.00000    0   42   87.00000  176.00000   102%     -    0s
     0     0  176.00000    0   38   87.00000  176.00000   102%     -    0s
     0     2  176.00000    0   38   87.00000  176.00000   102%     -    0s
H  123   168                      88.0000000  176.00000   100%  30.2    0s
H  349   279                      91.0000000  176.00000  93.4%  25.9    0s

Cutting planes:
  Cover: 1
  Inf proof: 5

Explored 16596 nodes (361019 simplex iterations) in 1.15 seconds (1.51 work units)
Thread count was 16 (of 16 available processors)

Solution count 10: 91 88 87 ... 55

Optimal solution found (tolerance 1.00e-04)
Best objective 9.100000000000e+01, best bound 9.100000000000e+01, gap 0.0000%

Wrote result file '/root/bgw/data/results/2026_03_24_13_36_42_set_vm-3-t1_vm-3-t1_s002_g002_max.sol'

